c ---- [ banner ] ------------------------------------------------------------
c
c Kissat SAT Solver
c 
c Copyright (c) 2021-2024 Armin Biere University of Freiburg
c Copyright (c) 2019-2021 Armin Biere Johannes Kepler University Linz
c 
c Version 4.0.1 43f02cf3e992cb44653b35e5cb26f93281552ae0
c gcc (Ubuntu 13.2.0-23ubuntu4) 13.2.0 -W -Wall -O3 -DNDEBUG
c Thu Sep 12 12:27:46 CEST 2024 Linux abryzen9 6.8.0-41-generic x86_64
c
c ---- [ parsing ] -----------------------------------------------------------
c
c opened and reading DIMACS file:
c
c   /data/artifact/AMulet2.0_artifact/exp4/cnf_mfs_64/64_64_U_SP_WT_SE_GenMul_mfs.cnf
c
c parsed 'p cnf 36439 141654' header
c closing input after reading 2758342 bytes (3 MB)
c finished parsing after 0.04 seconds
c
c ---- [ options ] -----------------------------------------------------------
c
c --stable=0                       (different from default '1')
c
c ---- [ solving ] -----------------------------------------------------------
c
c  seconds switched rate     size/glue tier1  binary           remaining
c         MB reductions conflicts size  tier2     irredundant
c          level restarts redundant glue  trail           variables
c
c *  0.04 11 0 0 0  0 0   0   0 0.0 0 0 0 0 0% 29285 112367 36436 100%
c (  0.06 13 0 0 0  0 0   0   0 0.0 0 0 0 0 0% 29285 112367 36436 100%
c .  0.07 13 0 0 0  0 0   0   0 0.0 0 0 0 0 0% 29281 112367 36436 100%
c c  0.19 21 0 0 0  0 0   0   0 0.0 0 0 0 0 0% 36505 98135 32822 90%
c d  0.19 22 0 0 0  0 0   0   0 0.0 0 0 0 0 0% 29277 98135 32822 90%
c =  0.26 22 0 0 0  0 0   0   0 0.0 0 0 0 0 0% 29713 98135 32532 89%
c d  0.27 22 0 0 0  0 0   0   0 0.0 0 0 0 0 0% 29133 98135 32532 89%
c f  0.38 20 0 0 0  0 0   0   0 0.0 0 0 0 0 0% 32128 93343 34323 94%
c e  0.54 28 0 0 0  0 0   0   0 0.0 0 0 0 0 0% 10161 107609 23131 63%
c )  0.54 28 0 0 0  0 0   0   0 0.0 0 0 0 0 0% 10161 107609 23131 63%
c {  0.57 28 0 0 0  0 0   0   0 0.0 0 0 2 6 0% 10161 107609 23131 63%
c -  0.85 28 135 0 1 333 38 1002 779 2.8 14 5 3 9 16% 10231 107599 23131 63%
c -  1.11 28 312 0 2 424 33 2002 1471 3.4 23 7 2 10 21% 10286 107596 23131 63%
c c  1.24 22 437 0 2 443 34 2504 1884 3.2 20 6 2 9 21% 10315 107566 23125 63%
c d  1.25 22 437 0 2 443 34 2504 1883 3.2 20 6 2 9 21% 10303 107566 23125 63%
c u  1.27 22 437 0 2 443 34 2504 1475 3.2 20 6 2 9 21% 10308 107566 23125 63%
c v  1.30 22 437 0 2 443 34 2504 1172 3.2 20 6 2 9 21% 10308 107566 23125 63%
c w  1.32 22 437 0 2 443 34 2504 1172 3.2 20 6 2 9 21% 10308 107566 23125 63%
c x  1.33 22 437 0 2 443 34 2504 1172 3.2 20 6 2 9 21% 10401 107381 23125 63%
c =  1.41 22 437 0 2 443 34 2504 1172 3.2 20 6 2 9 21% 10653 107381 22999 63%
c
c  seconds   switched   rate       size/glue tier1    binary           remaining
c         MB  reductions conflicts       size  tier2      irredundant
c           level restarts    redundant    glue   trail           variables
c
c d  1.41 22 437 0 2 443 34 2504 1172 3.2 20 6 2 9 21% 10400 107381 22999 63%
c t  1.42 22 437 0 2 443 34 2504 1172 3.2 20 6 2 9 21% 10392 107381 22999 63%
c f  1.45 27 437 0 2 443 34 2504 1172 3.2 20 6 2 9 21% 11043 106112 23615 65%
c u  1.49 27 437 0 2 443 34 2504 1144 3.2 20 6 2 9 21% 11044 106112 23615 65%
c v  1.51 27 437 0 2 443 34 2504 1106 3.2 20 6 2 9 21% 11044 106112 23615 65%
c w  1.53 27 437 0 2 443 34 2504 1097 3.2 20 6 2 9 21% 11044 106112 23615 65%
c x  1.55 27 437 0 2 443 34 2504 1097 3.2 20 6 2 9 21% 11046 105781 23615 65%
c =  1.62 27 437 0 2 443 34 2504 1097 3.2 20 6 2 9 21% 11294 105781 23491 64%
c d  1.63 27 437 0 2 443 34 2504 1097 3.2 20 6 2 9 21% 11007 105781 23491 64%
c f  1.67 27 437 0 2 443 34 2504 1097 3.2 20 6 2 9 21% 11457 105106 23716 65%
c -  2.06 27 424 0 3 581 34 3416 1622 3.8 27 7 2 9 23% 11501 105106 23716 65%
c -  2.52 27 396 0 4 733 33 5148 2767 4.0 27 7 2 10 23% 11547 105102 23716 65%
c -  3.00 27 389 0 5 905 32 7148 3934 3.9 27 7 2 8 22% 11639 105096 23716 65%
c c  3.17 27 382 0 5 943 32 7710 4389 3.8 26 7 2 8 22% 11665 104991 23684 65%
c d  3.18 27 382 0 5 943 32 7710 4375 3.8 26 7 2 8 22% 11601 104991 23684 65%
c u  3.20 27 382 0 5 943 32 7710 3583 3.8 26 7 2 8 22% 11615 104991 23684 65%
c v  3.25 27 382 0 5 943 32 7710 3084 3.8 26 7 2 8 22% 11615 104991 23684 65%
c w  3.28 27 382 0 5 943 32 7710 3066 3.8 26 7 2 8 22% 11615 104991 23684 65%
c x  3.32 27 382 0 5 943 32 7710 3066 3.8 26 7 2 8 22% 11617 104192 23684 65%
c =  3.46 27 382 0 5 943 32 7710 3066 3.8 26 7 2 8 22% 12541 104192 23222 64%
c
c  seconds   switched   rate       size/glue tier1    binary           remaining
c         MB  reductions conflicts       size  tier2      irredundant
c           level restarts    redundant    glue   trail           variables
c
c d  3.46 27 382 0 5 943 32 7710 3055 3.8 26 7 2 8 22% 11503 104192 23221 64%
c t  3.48 27 382 0 5 943 32 7710 3055 3.8 26 7 2 8 22% 11497 104192 23221 64%
c f  3.53 27 382 0 5 943 32 7710 3055 3.8 26 7 2 8 22% 13137 101723 24044 66%
c u  3.65 27 382 0 5 943 32 7710 2862 3.8 26 7 2 8 22% 13139 101723 24044 66%
c v  3.68 27 382 0 5 943 32 7710 2750 3.8 26 7 2 8 22% 13139 101723 24044 66%
c w  3.71 27 382 0 5 943 32 7710 2740 3.8 26 7 2 8 22% 13139 101723 24044 66%
c x  3.76 27 382 0 5 943 32 7710 2740 3.8 26 7 2 8 22% 13164 96629 24044 66%
c =  3.90 27 382 0 5 943 32 7710 2740 3.8 26 7 2 8 22% 13872 96629 23690 65%
c d  3.91 27 382 0 5 943 32 7710 2738 3.8 26 7 2 8 22% 13065 96629 23690 65%
c t  3.93 27 382 0 5 943 32 7710 2738 3.8 26 7 2 8 22% 13049 96629 23690 65%
c f  3.99 27 382 0 5 943 32 7710 2738 3.8 26 7 2 8 22% 13589 95819 23960 66%
c -  4.43 27 416 0 6 1081 32 9385 3671 4.0 27 7 2 8 22% 13664 95807 23960 66%
c o  4.50 27 426 0 6 1091 32 10002 4230 3.9 26 7 2 8 22% 13675 95807 23960 66%
c -  5.06 27 397 0 7 1237 31 11834 5192 4.0 27 7 2 8 23% 13720 95807 23960 66%
c s  5.21 27 383 0 7 1271 30 12512 5804 4.0 26 7 2 8 24% 13733 94563 23960 66%
c e  5.34 27 383 0 7 1271 30 12512 5804 4.0 26 7 2 8 24% 11743 95902 22320 61%
c s  5.35 27 383 0 7 1271 30 12512 5804 4.0 26 7 2 8 24% 11749 94484 22320 61%
c e  5.37 27 383 0 7 1271 30 12512 5804 4.0 26 7 2 8 24% 11737 94494 22313 61%
c ^  5.37 27 383 0 7 1271 30 12512 5804 4.0 26 7 2 8 24% 11737 94494 22313 61%
c -  5.69 27 397 0 8 1330 29 14479 6162 3.9 25 6 2 8 23% 11799 94494 22313 61%
c
c  seconds   switched    rate        size/glue tier1    binary          remaining
c         MB  reductions   conflicts       size  tier2      irredundant
c           level  restarts     redundant    glue   trail          variables
c
c d  5.85 27 402 0 8 1371 28 15788 7273 3.9 24 6 2 8 24% 11596 94494 22166 61%
c u  5.90 27 402 0 8 1371 28 15788 5694 3.9 24 6 2 8 24% 11625 94494 22166 61%
c v  5.95 27 402 0 8 1371 28 15788 5031 3.9 24 6 2 8 24% 11626 94494 22166 61%
c w  6.00 27 402 0 8 1371 28 15788 5030 3.9 24 6 2 8 24% 11626 94494 22166 61%
c x  6.03 27 402 0 8 1371 28 15788 5030 3.9 24 6 2 8 24% 11696 93711 22166 61%
c =  6.20 27 402 0 8 1371 28 15788 5030 3.9 24 6 2 8 24% 13108 93711 21460 59%
c d  6.21 27 402 0 8 1371 28 15788 4958 3.9 24 6 2 8 24% 11334 93711 21460 59%
c t  6.23 27 402 0 8 1371 28 15788 4958 3.9 24 6 2 8 24% 11322 93711 21460 59%
c f  6.29 27 402 0 8 1371 28 15788 4958 3.9 24 6 2 8 24% 11324 93705 21462 59%
c u  6.38 27 402 0 8 1371 28 15788 4593 3.9 24 6 2 8 24% 11327 93705 21462 59%
c v  6.41 27 402 0 8 1371 28 15788 4488 3.9 24 6 2 8 24% 11327 93705 21462 59%
c w  6.47 27 402 0 8 1371 28 15788 4466 3.9 24 6 2 8 24% 11327 93705 21462 59%
c x  6.51 27 402 0 8 1371 28 15788 4466 3.9 24 6 2 8 24% 11329 93322 21462 59%
c =  6.68 29 402 0 8 1371 28 15788 4466 3.9 24 6 2 8 24% 12795 93322 20729 57%
c d  6.69 29 402 0 8 1371 28 15788 4439 3.9 24 6 2 8 24% 10983 93322 20729 57%
c f  6.74 29 402 0 8 1371 28 15788 4439 3.9 24 6 2 8 24% 10984 93319 20730 57%
c -  7.05 29 398 0 9 1483 28 17308 5161 3.9 24 6 2 8 24% 11002 93319 20730 57%
c o  7.92 29 371 0 9 1773 29 20003 7492 4.0 26 7 2 8 24% 11073 93317 20730 57%
c -  8.08 29 368 0 10 1835 29 20308 6922 4.0 27 7 2 7 24% 11077 93317 20730 57%
c -  9.00 29 345 0 11 2176 29 23471 8654 4.0 27 7 2 7 24% 11150 93316 20730 57%
c
c  seconds   switched     rate        size/glue tier1    binary          remaining
c         MB   reductions   conflicts       size  tier2      irredundant
c           level   restarts     redundant    glue   trail          variables
c
c s  9.47 29 345 0 11 2311 30 25013 9969 4.2 29 7 2 7 25% 11200 92419 20730 57%
c e  9.61 29 345 0 11 2311 30 25013 9969 4.2 29 7 2 7 25% 9783 96061 18061 50%
c s  9.64 29 345 0 11 2311 30 25013 9969 4.2 29 7 2 7 25% 9825 93090 18061 50%
c e  9.69 29 345 0 11 2311 30 25013 9969 4.2 29 7 2 7 25% 9794 93141 18036 49%
c ^  9.69 29 345 0 11 2311 30 25013 9969 4.2 29 7 2 7 25% 9794 93141 18036 49%
c - 10.11 29 330 0 12 2399 29 26788 8379 4.0 27 7 2 7 25% 9812 93141 18036 49%
c d 10.16 29 329 0 12 2421 29 26914 8502 4.0 27 7 2 7 25% 9747 93141 17994 49%
c u 10.21 29 329 0 12 2421 29 26914 7039 4.0 27 7 2 7 25% 9758 93141 17994 49%
c v 10.27 29 329 0 12 2421 29 26914 6037 4.0 27 7 2 7 25% 9762 93141 17994 49%
c w 10.29 29 329 0 12 2421 29 26914 6032 4.0 27 7 2 7 25% 9762 93141 17994 49%
c x 10.41 29 329 0 12 2421 29 26914 6030 4.0 27 7 2 7 25% 9814 89522 17994 49%
c = 10.72 29 329 0 12 2421 29 26914 6030 4.0 27 7 2 7 25% 11954 89520 16924 46%
c d 10.73 29 329 0 12 2421 29 26914 5882 4.0 27 7 2 7 25% 9662 89520 16923 46%
c t 10.75 29 329 0 12 2421 29 26914 5882 4.0 27 7 2 7 25% 9622 89520 16923 46%
c f 10.85 29 329 0 12 2421 29 26914 5882 4.0 27 7 2 7 25% 9626 89422 16945 47%
c u 10.90 29 329 0 12 2421 29 26914 5485 4.0 27 7 2 7 25% 9631 89422 16945 47%
c v 10.93 29 329 0 12 2421 29 26914 5356 4.0 27 7 2 7 25% 9631 89422 16945 47%
c w 10.94 29 329 0 12 2421 29 26914 5349 4.0 27 7 2 7 25% 9631 89422 16945 47%
c x 11.09 29 329 0 12 2421 29 26914 5349 4.0 27 7 2 7 25% 9638 82562 16945 47%
c = 11.39 29 329 0 12 2421 29 26914 5349 4.0 27 7 2 7 25% 11486 82562 16021 44%
c
c  seconds   switched     rate        size/glue tier1    binary         remaining
c         MB   reductions   conflicts       size  tier2     irredundant
c           level   restarts     redundant    glue   trail         variables
c
c d 11.40 29 329 0 12 2421 29 26914 5236 4.0 27 7 2 7 25% 9610 82562 16021 44%
c t 11.42 29 329 0 12 2421 29 26914 5236 4.0 27 7 2 7 25% 9599 82562 16021 44%
c f 11.46 29 329 0 12 2421 29 26914 5236 4.0 27 7 2 7 25% 9603 82546 16025 44%
c - 12.22 28 310 0 13 2645 27 30254 7326 3.8 25 7 2 7 26% 9634 82545 16025 44%
c - 12.69 28 292 0 14 2809 26 33861 9342 3.6 24 7 2 7 25% 9680 82544 16025 44%
c - 13.00 28 283 0 15 2901 25 37602 11007 3.5 23 6 2 6 24% 9768 82530 16025 44%
c o 13.18 28 275 0 15 2976 24 40139 13146 3.5 22 6 2 6 23% 9826 82530 16025 44%
c c 13.45 28 275 0 15 3076 24 41243 14081 3.5 22 6 2 6 23% 9895 82173 15942 44%
c d 13.45 28 275 0 15 3076 24 41243 13829 3.5 22 6 2 6 23% 9729 82173 15942 44%
c u 13.51 28 275 0 15 3076 24 41243 11219 3.5 22 6 2 6 23% 9764 82173 15942 44%
c v 13.56 28 275 0 15 3076 24 41243 10654 3.5 22 6 2 6 23% 9763 82173 15942 44%
c w 13.60 28 275 0 15 3076 24 41243 10654 3.5 22 6 2 6 23% 9763 82173 15942 44%
c x 13.65 28 275 0 15 3076 24 41243 10654 3.5 22 6 2 6 23% 9765 79881 15942 44%
c = 13.83 28 275 0 15 3076 24 41243 10654 3.5 22 6 2 6 23% 9777 79881 15936 44%
c d 13.84 28 275 0 15 3076 24 41243 10634 3.5 22 6 2 6 23% 9754 79881 15931 44%
c t 13.85 28 275 0 15 3076 24 41243 10634 3.5 22 6 2 6 23% 9744 79881 15931 44%
c f 13.87 28 275 0 15 3076 24 41243 10634 3.5 22 6 2 6 23% 9745 79870 15934 44%
c u 13.92 28 275 0 15 3076 24 41243 10281 3.5 22 6 2 6 23% 9750 79870 15934 44%
c v 13.98 28 275 0 15 3076 24 41243 9474 3.5 22 6 2 6 23% 9752 79870 15934 44%
c w 14.03 28 275 0 15 3076 24 41243 9472 3.5 22 6 2 6 23% 9752 79870 15934 44%
c
c  seconds   switched     rate        size/glue tier1    binary         remaining
c         MB   reductions   conflicts       size  tier2     irredundant
c           level   restarts     redundant    glue   trail         variables
c
c x 14.09 28 275 0 15 3076 24 41243 9472 3.5 22 6 2 6 23% 9753 78512 15934 44%
c = 14.28 28 275 0 15 3076 24 41243 9472 3.5 22 6 2 6 23% 10359 78512 15631 43%
c d 14.29 28 275 0 15 3076 24 41243 9178 3.5 22 6 2 6 23% 9692 78512 15631 43%
c t 14.31 28 275 0 15 3076 24 41243 9178 3.5 22 6 2 6 23% 9683 78512 15631 43%
c - 14.40 28 274 0 16 3086 24 41476 8292 3.4 22 6 2 6 23% 9684 78512 15631 43%
c - 15.12 28 264 0 17 3380 24 45476 10540 3.4 22 6 2 6 23% 9719 78512 15631 43%
c - 16.00 28 256 0 18 3745 24 49601 12688 3.4 22 6 2 6 23% 9785 78510 15631 43%
c s 16.43 28 251 0 18 3937 24 52113 14974 3.3 21 6 2 6 23% 9826 74711 15631 43%
c e 16.55 28 251 0 18 3937 24 52113 14974 3.3 21 6 2 6 23% 8363 77327 14455 40%
c 2 16.55 28 251 0 18 3937 24 52113 14974 3.3 21 6 2 6 23% 8362 77327 14455 40%
c s 16.56 28 251 0 18 3937 24 52113 14974 3.3 21 6 2 6 23% 8375 76628 14455 40%
c e 16.57 28 251 0 18 3937 24 52113 14974 3.3 21 6 2 6 23% 8366 76646 14448 40%
c ^ 16.57 28 251 0 18 3937 24 52113 14974 3.3 21 6 2 6 23% 8366 76646 14448 40%
c - 16.90 28 246 0 19 4088 23 53843 12884 3.3 21 6 2 6 23% 8403 76646 14448 40%
c - 17.71 28 234 0 20 4496 23 58202 14804 3.2 21 6 2 6 23% 8456 76646 14448 40%
c c 17.95 28 233 0 20 4573 23 58878 15415 3.2 21 6 2 6 23% 8514 76255 14384 39%
c d 17.95 28 233 0 20 4573 23 58878 15228 3.2 21 6 2 6 23% 8386 76255 14384 39%
c u 18.03 28 233 0 20 4573 23 58878 12435 3.2 21 6 2 6 23% 8409 76255 14384 39%
c v 18.10 28 233 0 20 4573 23 58878 10977 3.2 21 6 2 6 23% 8414 76255 14384 39%
c w 18.16 28 233 0 20 4573 23 58878 10944 3.2 21 6 2 6 23% 8414 76255 14384 39%
c
c  seconds   switched     rate         size/glue tier1    binary         remaining
c         MB   reductions   conflicts        size  tier2     irredundant
c           level   restarts      redundant    glue   trail         variables
c
c x 18.25 28 233 0 20 4573 23 58878 10938 3.2 21 6 2 6 23% 8416 75574 14384 39%
c d 18.56 28 233 0 20 4573 23 58878 10931 3.2 21 6 2 6 23% 8398 75574 14375 39%
c t 18.58 28 233 0 20 4573 23 58878 10931 3.2 21 6 2 6 23% 8392 75574 14375 39%
c f 18.62 28 233 0 20 4573 23 58878 10931 3.2 21 6 2 6 23% 8398 75548 14378 39%
c c 18.68 28 233 0 20 4573 23 58878 10923 3.2 21 6 2 6 23% 8402 75532 14376 39%
c d 18.69 28 233 0 20 4573 23 58878 10923 3.2 21 6 2 6 23% 8398 75532 14376 39%
c u 18.75 28 233 0 20 4573 23 58878 10431 3.2 21 6 2 6 23% 8403 75532 14376 39%
c v 18.78 28 233 0 20 4573 23 58878 10157 3.2 21 6 2 6 23% 8403 75532 14376 39%
c w 18.83 28 233 0 20 4573 23 58878 10136 3.2 21 6 2 6 23% 8403 75532 14376 39%
c x 18.99 28 233 0 20 4573 23 58878 10131 3.2 21 6 2 6 23% 8425 74054 14376 39%
c d 19.00 28 233 0 20 4573 23 58878 10129 3.2 21 6 2 6 23% 8423 74054 14375 39%
c - 19.67 28 224 0 21 4831 23 62674 12147 3.1 20 6 2 6 23% 8446 74053 14375 39%
c - 20.61 28 217 0 22 5278 23 67256 14675 3.1 20 7 2 6 23% 8474 74050 14375 39%
c o 21.29 28 212 0 22 5601 23 70178 17261 3.1 20 7 2 6 23% 8506 74050 14375 39%
c - 21.56 28 209 0 23 5726 22 71946 16723 3.0 20 7 2 6 23% 8530 74049 14375 39%
c - 22.72 28 206 0 24 6276 23 76746 16840 3.1 20 7 1 5 23% 8580 74049 14375 39%
c d 23.10 28 202 0 24 6456 22 79956 19207 3.0 20 7 1 5 23% 8484 74049 14293 39%
c u 23.17 28 202 0 24 6456 22 79956 17269 3.0 20 7 1 5 23% 8522 74049 14293 39%
c v 23.29 28 202 0 24 6456 22 79956 14405 3.0 20 7 1 5 23% 8539 74049 14293 39%
c w 23.38 28 202 0 24 6456 22 79956 14375 3.0 20 7 1 5 23% 8539 74049 14293 39%
c
c  seconds   switched     rate         size/glue tier1    binary         remaining
c         MB   reductions   conflicts        size  tier2     irredundant
c           level   restarts      redundant    glue   trail         variables
c
c x 23.46 28 202 0 24 6456 22 79956 14375 3.0 20 7 1 5 23% 8541 73749 14293 39%
c = 23.84 28 202 0 24 6456 22 79956 14375 3.0 20 7 1 5 23% 8867 73741 14130 39%
c d 23.85 28 202 0 24 6456 22 79956 14258 3.0 20 7 1 5 23% 8487 73741 14117 39%
c t 23.86 28 202 0 24 6456 22 79956 14258 3.0 20 7 1 5 23% 8456 73741 14117 39%
c f 23.88 28 202 0 24 6456 22 79956 14258 3.0 20 7 1 5 23% 8456 73729 14119 39%
c c 23.94 28 202 0 24 6456 22 79956 14192 3.0 20 7 1 5 23% 8483 73624 14105 39%
c d 23.95 28 202 0 24 6456 22 79956 14192 3.0 20 7 1 5 23% 8455 73624 14105 39%
c u 24.01 28 202 0 24 6456 22 79956 13707 3.0 20 7 1 5 23% 8465 73624 14105 39%
c v 24.07 28 202 0 24 6456 22 79956 13107 3.0 20 7 1 5 23% 8469 73624 14105 39%
c w 24.18 28 202 0 24 6456 22 79956 12785 3.0 20 7 1 5 23% 8470 73624 14105 39%
c x 24.28 28 202 0 24 6456 22 79956 12783 3.0 20 7 1 5 23% 8471 72376 14105 39%
c = 24.67 28 202 0 24 6456 22 79956 12783 3.0 20 7 1 5 23% 9391 72374 13645 37%
c d 24.68 28 202 0 24 6456 22 79956 12228 3.0 20 7 1 5 23% 8403 72374 13644 37%
c t 24.70 28 202 0 24 6456 22 79956 12228 3.0 20 7 1 5 23% 8371 72374 13644 37%
c f 24.72 28 202 0 24 6456 22 79956 12228 3.0 20 7 1 5 23% 8390 72282 13657 37%
c - 25.02 28 200 0 25 6577 22 81644 11531 3.0 20 7 1 5 23% 8400 72280 13657 37%
c - 26.01 28 195 0 26 7089 22 86644 13699 3.0 20 7 1 5 23% 8424 72272 13657 37%
c - 27.06 28 195 0 27 7616 22 91748 15808 3.0 20 7 1 5 24% 8477 72265 13657 37%
c s 27.57 28 193 0 27 7878 22 95802 19056 3.0 20 7 1 5 23% 8524 70498 13657 37%
c e 27.70 28 193 0 27 7878 22 95802 19056 3.0 20 7 1 5 23% 5614 78245 12042 33%
c
c  seconds   switched     rate         size/glue tier1    binary         remaining
c         MB   reductions   conflicts        size  tier2     irredundant
c           level   restarts      redundant    glue   trail         variables
c
c 2 27.70 28 193 0 27 7878 22 95802 19056 3.0 20 7 1 5 23% 5610 78245 12042 33%
c s 27.73 28 193 0 27 7878 22 95802 19056 3.0 20 7 1 5 23% 5629 77494 12042 33%
c e 27.75 28 193 0 27 7878 22 95802 19056 3.0 20 7 1 5 23% 5581 77675 11983 33%
c ^ 27.75 28 193 0 27 7878 22 95802 19056 3.0 20 7 1 5 23% 5581 77675 11983 33%
c - 28.09 28 191 0 28 8062 22 96944 12974 2.9 20 7 1 5 23% 5581 77675 11983 33%
c - 29.35 28 186 0 29 8722 22 102235 15211 2.9 20 7 1 5 24% 5592 77674 11983 33%
c d 29.76 28 185 0 29 8924 22 104595 17241 2.9 20 7 1 5 24% 5615 77673 11978 33%
c u 29.83 28 185 0 29 8924 22 104595 15259 2.9 20 7 1 5 24% 5630 77673 11978 33%
c v 29.92 28 185 0 29 8924 22 104595 12740 2.9 20 7 1 5 24% 5635 77673 11978 33%
c w 30.09 28 185 0 29 8924 22 104595 12564 2.9 20 7 1 5 24% 5635 77673 11978 33%
c x 30.21 28 185 0 29 8924 22 104595 12562 2.9 20 7 1 5 24% 5652 77212 11978 33%
c = 30.70 28 185 0 29 8924 22 104595 12562 2.9 20 7 1 5 24% 5920 77209 11844 33%
c d 30.70 28 185 0 29 8924 22 104595 12332 2.9 20 7 1 5 24% 5627 77209 11844 33%
c t 30.72 28 185 0 29 8924 22 104595 12332 2.9 20 7 1 5 24% 5598 77209 11844 33%
c f 30.81 28 185 0 29 8924 22 104595 12332 2.9 20 7 1 5 24% 5629 77042 11859 33%
c u 30.87 28 185 0 29 8924 22 104595 11958 2.9 20 7 1 5 24% 5636 77042 11859 33%
c v 30.92 28 185 0 29 8924 22 104595 11457 2.9 20 7 1 5 24% 5637 77042 11859 33%
c w 31.06 28 185 0 29 8924 22 104595 11245 2.9 20 7 1 5 24% 5637 77042 11859 33%
c x 31.20 28 185 0 29 8924 22 104595 11214 2.9 20 7 1 5 24% 5643 76500 11859 33%
c = 31.69 28 185 0 29 8924 22 104595 11214 2.9 20 7 1 5 24% 5713 76500 11824 32%
c
c  seconds   switched     rate          size/glue tier1    binary         remaining
c         MB   reductions   conflicts         size  tier2     irredundant
c           level   restarts       redundant    glue   trail         variables
c
c d 31.70 28 185 0 29 8924 22 104595 11182 2.9 20 7 1 5 24% 5642 76500 11824 32%
c t 31.71 28 185 0 29 8924 22 104595 11182 2.9 20 7 1 5 24% 5637 76500 11824 32%
c f 31.72 28 185 0 29 8924 22 104595 11182 2.9 20 7 1 5 24% 5640 76477 11826 32%
c - 32.49 28 182 0 30 9334 22 107620 12018 2.9 19 7 1 5 24% 5644 76477 11826 32%
c o 33.03 28 181 0 30 9643 22 110179 14382 2.9 19 7 1 5 24% 5650 76476 11826 32%
c - 33.90 28 178 0 31 10078 22 113098 14634 2.8 20 7 1 5 25% 5654 76476 11826 32%
c - 35.39 28 175 0 32 10729 22 118665 16830 2.9 20 7 1 5 25% 5664 76472 11826 32%
c - 36.98 28 174 0 33 11397 23 124321 18600 2.9 21 7 1 5 25% 5673 76469 11826 32%
c - 38.55 28 172 0 34 11992 23 130065 20074 2.9 22 7 1 5 25% 5695 76466 11826 32%
c c 39.57 28 171 0 34 12370 23 132858 22661 2.9 22 8 1 4 26% 5721 76396 11807 32%
c d 39.57 28 171 0 34 12370 23 132858 22583 2.9 22 8 1 4 26% 5683 76396 11807 32%
c u 39.66 28 171 0 34 12370 23 132858 20168 2.9 22 8 1 4 26% 5701 76396 11807 32%
c v 39.76 28 171 0 34 12370 23 132858 17214 2.9 22 8 1 4 26% 5707 76396 11807 32%
c w 40.08 28 171 0 34 12370 23 132858 17166 2.9 22 8 1 4 26% 5707 76396 11807 32%
c x 40.27 28 171 0 34 12370 23 132858 17142 2.9 22 8 1 4 26% 5743 74550 11807 32%
c = 40.82 28 171 0 34 12370 23 132858 17142 2.9 22 8 1 4 26% 5755 74550 11801 32%
c d 40.82 28 171 0 34 12370 23 132858 17123 2.9 22 8 1 4 26% 5727 74550 11796 32%
c t 40.83 28 171 0 34 12370 23 132858 17123 2.9 22 8 1 4 26% 5707 74550 11796 32%
c f 40.84 28 171 0 34 12370 23 132858 17123 2.9 22 8 1 4 26% 5709 74539 11797 32%
c u 40.88 28 171 0 34 12370 23 132858 16543 2.9 22 8 1 4 26% 5714 74539 11797 32%
c
c  seconds   switched      rate          size/glue tier1    binary         remaining
c         MB   reductions    conflicts         size  tier2     irredundant
c           level   restarts        redundant    glue   trail         variables
c
c v 40.92 28 171 0 34 12370 23 132858 16005 2.9 22 8 1 4 26% 5715 74539 11797 32%
c w 41.12 28 171 0 34 12370 23 132858 15070 2.9 22 8 1 4 26% 5715 74539 11797 32%
c x 41.20 28 171 0 34 12370 23 132858 15069 2.9 22 8 1 4 26% 5715 74528 11797 32%
c = 41.73 28 171 0 34 12370 23 132858 15069 2.9 22 8 1 4 26% 5751 74528 11779 32%
c d 41.74 28 171 0 34 12370 23 132858 15018 2.9 22 8 1 4 26% 5710 74528 11779 32%
c f 41.75 28 171 0 34 12370 23 132858 15018 2.9 22 8 1 4 26% 5712 74517 11780 32%
c - 42.13 28 169 0 35 12569 23 135897 15257 2.9 22 8 1 4 26% 5716 74516 11780 32%
c - 42.86 28 164 0 36 13017 22 141813 17806 2.9 22 8 1 4 26% 5759 74512 11780 32%
c - 43.60 28 164 0 37 13506 22 147813 19921 2.9 22 8 1 4 26% 5775 74510 11780 32%
c - 44.53 28 163 0 38 14160 22 153897 21518 2.9 23 8 1 4 26% 5804 74509 11780 32%
c s 45.12 28 162 0 38 14532 22 157898 25218 2.9 23 8 1 4 26% 5816 74382 11780 32%
c e 45.23 28 162 0 38 14532 22 157898 25218 2.9 23 8 1 4 26% 3139 87158 10083 28%
c s 45.25 28 162 0 38 14532 22 157898 25218 2.9 23 8 1 4 26% 3158 86122 10083 28%
c e 45.27 28 162 0 38 14532 22 157898 25218 2.9 23 8 1 4 26% 3115 86350 10045 28%
c ^ 45.27 28 162 0 38 14532 22 157898 25218 2.9 23 8 1 4 26% 3115 86350 10045 28%
c - 45.54 28 161 0 39 14673 22 160063 16179 2.9 23 8 1 4 26% 3117 86350 10045 28%
c o 45.56 28 161 0 39 14682 22 160185 16295 2.9 23 8 1 4 26% 3117 86350 10045 28%
c c 46.02 28 167 0 39 14995 21 164861 20464 2.9 23 8 1 4 26% 3146 86249 10034 28%
c d 46.03 28 167 0 39 14995 21 164861 20432 2.9 23 8 1 4 26% 3124 86249 10034 28%
c u 46.07 28 167 0 39 14995 21 164861 18338 2.9 23 8 1 4 26% 3134 86249 10034 28%
c
c  seconds   switched      rate          size/glue tier1    binary         remaining
c         MB   reductions    conflicts         size  tier2     irredundant
c           level   restarts        redundant    glue   trail         variables
c
c v 46.12 28 167 0 39 14995 21 164861 15824 2.9 23 8 1 4 26% 3135 86249 10034 28%
c w 46.30 28 167 0 39 14995 21 164861 14755 2.9 23 8 1 4 26% 3136 86249 10034 28%
c = 46.76 28 167 0 39 14995 21 164861 14755 2.9 23 8 1 4 26% 3199 86227 10001 27%
c d 46.77 28 167 0 39 14995 21 164861 14722 2.9 23 8 1 4 26% 3129 86227 10001 27%
c t 46.77 28 167 0 39 14995 21 164861 14722 2.9 23 8 1 4 26% 3119 86227 10001 27%
c f 46.87 28 167 0 39 14995 21 164861 14722 2.9 23 8 1 4 26% 3153 85839 10019 27%
c u 46.93 28 167 0 39 14995 21 164861 14302 2.9 23 8 1 4 26% 3158 85839 10019 27%
c v 46.96 28 167 0 39 14995 21 164861 13798 2.9 23 8 1 4 26% 3158 85839 10019 27%
c w 47.11 28 167 0 39 14995 21 164861 13405 2.9 23 8 1 4 26% 3158 85839 10019 27%
c x 47.20 28 167 0 39 14995 21 164861 13403 2.9 23 8 1 4 26% 3160 85405 10019 27%
c = 47.67 28 167 0 39 14995 21 164861 13403 2.9 23 8 1 4 26% 3228 85399 9985 27%
c d 47.67 28 167 0 39 14995 21 164861 13194 2.9 23 8 1 4 26% 3153 85399 9985 27%
c t 47.68 28 167 0 39 14995 21 164861 13194 2.9 23 8 1 4 26% 3152 85399 9985 27%
c - 47.84 28 167 0 40 15080 21 166310 12559 2.9 23 8 1 4 27% 3154 85399 9985 27%
c - 48.30 28 168 0 41 15363 20 172634 15246 2.9 23 8 1 5 26% 3160 85398 9985 27%
c - 49.27 28 166 0 42 16061 21 179038 17838 2.9 23 8 1 5 27% 3163 85394 9985 27%
c - 50.16 28 163 0 43 16722 21 185519 19556 2.8 23 8 1 5 27% 3179 85394 9985 27%
c i 50.26 28 162 0 43 16791 20 186699 20528 2.8 23 8 1 5 26% 3188 85394 9984 27%
c - 51.10 28 160 0 44 17393 21 192076 20947 2.8 24 8 1 5 27% 3190 85393 9984 27%
c - 51.85 28 156 0 45 17904 20 198710 22272 2.8 23 8 1 5 27% 3196 85390 9984 27%
c
c  seconds   switched      rate          size/glue tier1    binary        remaining
c         MB   reductions    conflicts         size  tier2     irredundant
c           level   restarts        redundant    glue   trail        variables
c
c d 52.13 28 155 0 45 18120 20 200655 24050 2.8 24 8 1 5 27% 3195 85380 9979 27%
c d 52.13 28 155 0 45 18120 20 200655 24030 2.8 24 8 1 5 27% 3191 85380 9977 27%
c u 52.18 28 155 0 45 18120 20 200655 21774 2.8 24 8 1 5 27% 3204 85380 9977 27%
c v 52.27 28 155 0 45 18120 20 200655 17686 2.8 24 8 1 5 27% 3205 85380 9977 27%
c w 52.38 28 155 0 45 18120 20 200655 17579 2.8 24 8 1 5 27% 3205 85380 9977 27%
c x 52.45 28 155 0 45 18120 20 200655 17579 2.8 24 8 1 5 27% 3205 85356 9977 27%
c = 52.98 28 155 0 45 18120 20 200655 17579 2.8 24 8 1 5 27% 3235 85318 9957 27%
c d 52.99 28 155 0 45 18120 20 200655 17492 2.8 24 8 1 5 27% 3203 85318 9957 27%
c t 53.00 28 155 0 45 18120 20 200655 17492 2.8 24 8 1 5 27% 3184 85318 9957 27%
c u 53.07 28 155 0 45 18120 20 200655 16921 2.8 24 8 1 5 27% 3199 85318 9956 27%
c v 53.12 28 155 0 45 18120 20 200655 16179 2.8 24 8 1 5 27% 3199 85318 9956 27%
c w 53.25 28 155 0 45 18120 20 200655 15698 2.8 24 8 1 5 27% 3199 85318 9956 27%
c d 53.79 28 155 0 45 18120 20 200655 15692 2.8 24 8 1 5 27% 3200 85308 9955 27%
c d 53.79 28 155 0 45 18120 20 200655 15692 2.8 24 8 1 5 27% 3198 85308 9954 27%
c t 53.79 28 155 0 45 18120 20 200655 15692 2.8 24 8 1 5 27% 3197 85308 9954 27%
c i 53.80 28 155 0 45 18120 20 200655 15692 2.8 24 8 1 5 27% 3197 85308 9954 27%
c i 53.86 28 155 0 45 18162 20 201162 16132 2.8 24 8 1 5 27% 3199 85308 9953 27%
c - 54.31 28 153 0 46 18484 20 205418 16677 2.8 23 8 1 5 27% 3199 85307 9953 27%
c i 54.60 28 152 0 46 18696 20 207583 18685 2.8 23 8 1 5 27% 3210 85305 9952 27%
c i 55.06 28 150 0 46 19017 19 212061 22661 2.8 23 8 1 5 27% 3226 85302 9951 27%
c
c  seconds   switched      rate          size/glue tier1    binary        remaining
c         MB   reductions    conflicts         size  tier2     irredundant
c           level   restarts        redundant    glue   trail        variables
c
c - 55.07 28 150 0 47 19019 19 212203 19147 2.8 23 8 1 5 27% 3215 85302 9951 27%
c i 55.59 28 148 0 47 19408 19 216392 23055 2.7 23 8 1 5 27% 3221 85302 9950 27%
c i 55.73 28 147 0 47 19493 19 217950 24466 2.7 23 8 1 5 27% 3225 85302 9948 27%
c i 55.75 28 147 0 47 19500 19 218582 24938 2.7 23 8 1 5 27% 3230 85302 9946 27%
c - 55.84 28 147 0 48 19565 19 219059 20973 2.7 23 8 1 5 27% 3217 85302 9946 27%
c o 55.91 28 146 0 48 19595 19 220330 22140 2.7 23 8 1 5 27% 3217 85302 9946 27%
c i 55.95 28 145 0 48 19622 19 220464 22263 2.7 23 8 1 5 27% 3219 85302 9945 27%
c i 56.18 28 144 0 48 19769 19 223299 24843 2.7 23 8 1 5 26% 3226 85302 9944 27%
c - 56.46 28 142 0 49 19958 18 225987 22443 2.7 23 8 1 5 26% 3221 85302 9944 27%
c - 57.23 28 138 0 50 20464 18 232987 23653 2.7 22 8 1 5 26% 3229 85302 9944 27%
c i 57.36 28 137 0 50 20553 18 234554 25084 2.6 22 8 1 5 26% 3231 85302 9943 27%
c s 57.81 28 133 0 50 20845 17 240032 29972 2.6 22 8 1 5 26% 3252 84833 9943 27%
c e 57.97 31 133 0 50 20845 17 240032 29972 2.6 22 8 1 5 26% 669 108324 8016 22%
c s 58.02 31 133 0 50 20845 17 240032 29972 2.6 22 8 1 5 26% 684 106037 8016 22%
c e 58.07 31 133 0 50 20845 17 240032 29972 2.6 22 8 1 5 26% 607 106696 7968 22%
c ! 58.08 31 133 0 50 20845 17 240032 29972 2.6 22 8 1 5 26% 607 106696 7968 22%
c - 58.09 31 133 0 51 20845 17 240058 14778 2.6 22 8 1 5 26% 616 106687 7968 22%
c d 58.11 31 133 0 51 20865 17 240326 15006 2.6 22 8 1 5 26% 609 106687 7964 22%
c u 58.15 31 133 0 51 20865 17 240326 12989 2.6 22 8 1 5 26% 616 106687 7964 22%
c v 58.20 31 133 0 51 20865 17 240326 10644 2.6 22 8 1 5 26% 616 106687 7964 22%
c
c  seconds   switched      rate          size/glue tier1   binary         remaining
c         MB   reductions    conflicts         size  tier2    irredundant
c           level   restarts        redundant    glue   trail        variables
c
c w 58.22 31 133 0 51 20865 17 240326 10500 2.6 22 8 1 5 26% 616 106687 7964 22%
c x 58.36 31 133 0 51 20865 17 240326 10394 2.6 22 8 1 5 26% 662 104794 7964 22%
c d 58.36 31 133 0 51 20865 17 240326 10393 2.6 22 8 1 5 26% 658 104794 7962 22%
c t 58.37 31 133 0 51 20865 17 240326 10393 2.6 22 8 1 5 26% 621 104794 7962 22%
c f 58.49 31 133 0 51 20865 17 240326 10393 2.6 22 8 1 5 26% 774 100704 8048 22%
c u 58.53 31 133 0 51 20865 17 240326 10147 2.6 22 8 1 5 26% 777 100704 8048 22%
c v 58.56 31 133 0 51 20865 17 240326 9897 2.6 22 8 1 5 26% 777 100704 8048 22%
c w 58.57 31 133 0 51 20865 17 240326 9881 2.6 22 8 1 5 26% 777 100704 8048 22%
c x 58.71 31 133 0 51 20865 17 240326 9859 2.6 22 8 1 5 26% 779 100233 8048 22%
c = 59.16 31 133 0 51 20865 17 240326 9859 2.6 22 8 1 5 26% 864 99875 7977 22%
c d 59.16 31 133 0 51 20865 17 240326 9630 2.6 22 8 1 5 26% 784 99870 7977 22%
c t 59.17 31 133 0 51 20865 17 240326 9630 2.6 22 8 1 5 26% 768 99870 7977 22%
c f 59.25 31 133 0 51 20865 17 240326 9630 2.6 22 8 1 5 26% 1500 98460 8004 22%
c i 59.34 31 127 0 51 20921 16 246140 14524 2.6 21 8 1 5 24% 1516 98459 8001 22%
c i 59.36 31 126 0 51 20929 16 246973 15201 2.6 21 8 1 5 24% 1524 98456 8000 22%
c i 59.36 31 126 0 51 20929 16 247003 15206 2.6 21 8 1 5 24% 1530 98456 7999 22%
c i 59.36 31 126 0 51 20929 16 247007 15206 2.6 21 8 1 5 24% 1531 98456 7998 22%
c i 59.36 31 126 0 51 20929 16 247023 15212 2.6 21 8 1 5 24% 1534 98456 7995 22%
c i 59.36 31 126 0 51 20929 16 247047 15218 2.6 21 8 1 5 24% 1537 98456 7985 22%
c } 59.36 31 126 0 51 20929 16 247053 15218 2.6 21 8 1 5 24% 1539 98456 7980 22%
c
c  seconds   switched      rate          size/glue tier1    binary        remaining
c         MB   reductions    conflicts         size  tier2     irredundant
c           level   restarts        redundant    glue   trail        variables
c
c 0 59.36 31 126 0 51 20929 16 247053 15218 2.6 21 8 1 5 24% 1539 98456 7980 22%
c
c ---- [ result ] ------------------------------------------------------------
c
s UNSATISFIABLE
c
c ---- [ profiling ] ---------------------------------------------------------
c
c          41.45   69.82 %  search
c          41.45   69.82 %  focused
c          17.35   29.22 %  simplify
c          16.40   27.62 %  probe
c           7.34   12.37 %  sweep
c           6.24   10.51 %  vivify
c           1.26    2.12 %  eliminate
c           1.14    1.92 %  factor
c           0.74    1.25 %  congruence
c           0.69    1.16 %  substitute
c           0.48    0.81 %  preprocess
c           0.30    0.51 %  reduce
c           0.24    0.40 %  subsume
c           0.16    0.27 %  fastel
c           0.16    0.26 %  transitive
c           0.09    0.15 %  backbone
c           0.05    0.09 %  lucky
c           0.04    0.06 %  parse
c =============================================
c          59.36  100.00 %  total
c
c ---- [ statistics ] --------------------------------------------------------
c
c chronological:                         6318                3 %  conflicts
c conflicts:                           247053             4161.64 per second
c congruent:                             3845               11 %  variables
c decisions:                          4540221               18.38 per conflict
c eliminated:                           22100               61 %  variables
c factored:                              3925               11 %  variables
c fast_eliminated:                      11192               51 %  eliminated
c fast_strengthened:                        5                0 %  per strengthened
c fast_subsumed:                           60                0 %  per subsumed
c iterations:                              17                0 %  variables
c propagations:                     191818432          3231208    per second
c reductions:                              51             4844    interval
c reordered:                                7            35293    interval
c restarts:                             20929               12    interval
c strengthened:                          8850                0 %  checks
c substituted:                          10208               28 %  variables
c subsumed:                             17321                0 %  checks
c switched:                                 0                0    interval
c vivified:                            106380               11 %  checks
c
c ---- [ glue usage ] --------------------------------------------------------
c
c focused glue 1 used 476060 clauses 60.77% accumulated 60.77% tier1
c focused glue 2 used 142769 clauses 18.23% accumulated 79.00%
c focused glue 3 used  50857 clauses  6.49% accumulated 85.49%
c focused glue 4 used  29259 clauses  3.74% accumulated 89.23%
c focused glue 5 used  19245 clauses  2.46% accumulated 91.68% tier2
c
c ---- [ resources ] ---------------------------------------------------------
c
c maximum-resident-set-size:         32108544 bytes         31 MB
c process-time:                            59s              59.36 seconds
c
c ---- [ shutting down ] -----------------------------------------------------
c
c exit 20
